EGSTP_runtime_files/empty-32-32_p_safe_0.8_typeOfTest_2_mEgtsp.gtsp
NAME : mEgtspf
TYPE : AGTSP
DIMENSION : 50
GTSP_SETS : 20
EDGE_WEIGHT_TYPE : EXPLICIT
EDGE_WEIGHT_FORMAT : FULL_MATRIX
EDGE_WEIGHT_SECTION
0 0 0 0 0 0 0 0 0 0 13 12 11 12 21 20 21 22 32 31 32 33 10 9 10 11 12 13 14 13 18 19 20 19 36 35 36 37 20 19 20 21 27 26 27 28 26 25 26 27
0 0 0 0 0 0 0 0 0 0 37 38 37 36 27 28 27 26 6 7 8 7 26 27 26 25 22 23 22 21 16 17 16 15 10 11 12 11 14 13 14 15 17 16 17 18 14 13 14 15
0 0 0 0 0 0 0 0 0 0 24 25 26 25 4 5 6 5 31 30 31 32 15 16 17 16 33 34 35 34 39 40 41 40 35 34 35 36 19 18 19 20 26 25 26 27 25 24 25 26
0 0 0 0 0 0 0 0 0 0 20 19 18 19 30 29 30 31 25 24 25 26 19 18 19 20 3 4 3 2 9 10 11 10 29 28 29 30 21 20 21 22 24 23 24 25 21 20 21 22
0 0 0 0 0 0 0 0 0 0 34 35 34 33 14 15 14 13 35 36 35 34 25 26 25 24 43 44 43 42 49 50 49 48 31 32 31 30 23 24 23 22 20 21 20 19 23 24 23 22
0 0 0 0 0 0 0 0 0 0 22 23 22 21 12 13 12 11 21 22 23 22 11 12 11 10 25 26 25 24 31 32 31 30 25 26 27 26 9 10 11 10 16 17 18 17 15 16 17 16
0 0 0 0 0 0 0 0 0 0 28 29 28 27 20 19 18 19 29 30 29 28 19 20 19 18 37 38 37 36 43 44 43 42 25 26 25 24 17 18 17 16 14 15 14 13 17 18 17 16
0 0 0 0 0 0 0 0 0 0 25 24 23 24 15 14 13 14 20 19 20 21 14 13 12 13 18 19 20 19 24 25 26 25 24 23 24 25 8 7 8 9 15 14 15 16 14 13 14 15
0 0 0 0 0 0 0 0 0 0 42 43 42 41 32 33 32 31 5 6 5 4 31 32 31 30 27 28 27 26 21 22 21 20 5 6 7 6 15 16 15 14 16 15 14 15 13 12 11 12
0 0 0 0 0 0 0 0 0 0 27 28 29 28 9 10 9 8 28 29 30 29 18 19 20 19 36 37 38 37 42 43 44 43 28 29 30 29 16 17 18 17 19 20 21 20 18 19 20 19
0 0 0 0 0 0 0 0 0 0 0 0 0 0 24 23 22 23 41 40 41 42 13 12 13 14 17 16 17 18 23 22 23 24 45 44 45 46 29 28 29 30 36 35 36 37 35 34 35 36
0 0 0 0 0 0 0 0 0 0 0 0 0 0 23 22 21 22 40 41 42 41 12 13 14 13 16 17 18 17 22 23 24 23 44 45 46 45 28 29 30 29 35 36 37 36 34 35 36 35
0 0 0 0 0 0 0 0 0 0 0 0 0 0 22 21 22 23 41 42 43 42 13 14 15 14 17 18 19 18 23 24 25 24 45 46 47 46 29 30 31 30 36 37 38 37 35 36 37 36
0 0 0 0 0 0 0 0 0 0 0 0 0 0 23 22 23 24 42 41 42 43 14 13 14 15 18 17 18 19 24 23 24 25 46 45 46 47 30 29 30 31 37 36 37 38 36 35 36 37
0 0 0 0 0 0 0 0 0 0 22 23 22 21 0 0 0 0 31 30 31 32 13 14 13 12 31 32 31 30 37 38 37 36 35 34 35 36 19 18 19 20 26 25 26 27 25 24 25 26
0 0 0 0 0 0 0 0 0 0 23 24 23 22 0 0 0 0 30 31 32 31 14 15 14 13 32 33 32 31 38 39 38 37 34 35 36 35 18 19 20 19 25 26 27 26 24 25 26 25
0 0 0 0 0 0 0 0 0 0 22 23 24 23 0 0 0 0 31 32 33 32 13 14 15 14 31 32 33 32 37 38 39 38 35 36 37 36 19 20 21 20 26 27 28 27 25 26 27 26
0 0 0 0 0 0 0 0 0 0 21 22 23 22 0 0 0 0 32 31 32 33 12 13 14 13 30 31 32 31 36 37 38 37 36 35 36 37 20 19 20 21 27 26 27 28 26 25 26 27
0 0 0 0 0 0 0 0 0 0 43 42 41 42 33 32 31 32 0 0 0 0 32 31 30 31 28 27 26 27 22 21 20 21 6 5 6 7 16 15 14 15 19 18 17 18 16 15 14 15
0 0 0 0 0 0 0 0 0 0 42 43 42 41 32 33 32 31 0 0 0 0 31 32 31 30 27 28 27 26 21 22 21 20 5 4 5 6 15 14 13 14 18 17 16 17 15 14 13 14
0 0 0 0 0 0 0 0 0 0 41 42 41 40 31 32 31 30 0 0 0 0 30 31 30 29 26 27 26 25 20 21 20 19 6 5 6 7 14 13 12 13 17 16 17 18 14 13 14 15
0 0 0 0 0 0 0 0 0 0 42 41 40 41 32 31 30 31 0 0 0 0 31 30 29 30 27 26 25 26 21 20 19 20 7 6 7 8 15 14 13 14 18 17 18 19 15 14 15 16
0 0 0 0 0 0 0 0 0 0 15 14 13 14 15 14 13 14 30 29 30 31 0 0 0 0 20 21 20 19 26 27 26 25 34 33 34 35 18 17 18 19 25 24 25 26 24 23 24 25
0 0 0 0 0 0 0 0 0 0 14 15 14 13 14 13 12 13 29 30 31 30 0 0 0 0 21 22 21 20 27 28 27 26 33 34 35 34 17 18 19 18 24 25 26 25 23 24 25 24
0 0 0 0 0 0 0 0 0 0 13 14 13 12 13 12 13 14 30 31 32 31 0 0 0 0 20 21 22 21 26 27 28 27 34 35 36 35 18 19 20 19 25 26 27 26 24 25 26 25
0 0 0 0 0 0 0 0 0 0 14 13 12 13 14 13 14 15 31 30 31 32 0 0 0 0 19 20 21 20 25 26 27 26 35 34 35 36 19 18 19 20 26 25 26 27 25 24 25 26
0 0 0 0 0 0 0 0 0 0 19 18 17 18 33 32 31 32 26 25 26 27 22 21 20 21 0 0 0 0 6 7 8 7 30 29 30 31 24 23 22 23 27 26 25 26 24 23 22 23
0 0 0 0 0 0 0 0 0 0 18 19 18 17 32 31 30 31 25 26 27 26 21 20 19 20 0 0 0 0 7 8 9 8 29 30 31 30 23 22 21 22 26 25 24 25 23 22 21 22
0 0 0 0 0 0 0 0 0 0 17 18 17 16 31 30 31 32 26 27 28 27 20 19 20 21 0 0 0 0 8 9 10 9 30 31 32 31 22 21 22 23 25 24 25 26 22 21 22 23
0 0 0 0 0 0 0 0 0 0 18 17 16 17 32 31 32 33 27 26 27 28 21 20 21 22 0 0 0 0 7 8 9 8 31 30 31 32 23 22 23 24 26 25 26 27 23 22 23 24
0 0 0 0 0 0 0 0 0 0 25 24 23 24 39 38 37 38 20 19 20 21 28 27 26 27 10 9 8 9 0 0 0 0 24 23 24 25 30 29 28 29 33 32 31 32 30 29 28 29
0 0 0 0 0 0 0 0 0 0 24 25 24 23 38 37 36 37 19 20 21 20 27 26 25 26 9 8 7 8 0 0 0 0 23 24 25 24 29 28 27 28 32 31 30 31 29 28 27 28
0 0 0 0 0 0 0 0 0 0 23 24 23 22 37 36 37 38 20 21 22 21 26 25 26 27 8 7 6 7 0 0 0 0 24 25 26 25 28 27 28 29 31 30 31 32 28 27 28 29
0 0 0 0 0 0 0 0 0 0 24 23 22 23 38 37 38 39 21 20 21 22 27 26 27 28 9 8 7 8 0 0 0 0 25 24 25 26 29 28 29 30 32 31 32 33 29 28 29 30
0 0 0 0 0 0 0 0 0 0 47 46 45 46 37 36 35 36 6 7 6 5 36 35 34 35 32 31 30 31 26 25 24 25 0 0 0 0 20 19 18 19 15 14 13 14 14 13 12 13
0 0 0 0 0 0 0 0 0 0 46 47 46 45 36 37 36 35 7 8 7 6 35 36 35 34 31 32 31 30 25 26 25 24 0 0 0 0 19 20 19 18 14 13 12 13 13 14 13 12
0 0 0 0 0 0 0 0 0 0 45 46 45 44 35 36 35 34 6 7 6 5 34 35 34 33 30 31 30 29 24 25 24 23 0 0 0 0 18 19 18 17 13 12 13 14 12 13 12 11
0 0 0 0 0 0 0 0 0 0 46 45 44 45 36 35 34 35 5 6 5 4 35 34 33 34 31 30 29 30 25 24 23 24 0 0 0 0 19 18 17 18 14 13 14 15 13 12 11 12
0 0 0 0 0 0 0 0 0 0 31 30 29 30 21 20 19 20 12 13 14 13 20 19 18 19 22 23 22 21 28 29 28 27 18 17 18 19 0 0 0 0 9 8 9 10 8 7 8 9
0 0 0 0 0 0 0 0 0 0 30 31 30 29 20 21 20 19 13 14 15 14 19 20 19 18 23 24 23 22 29 30 29 28 17 18 19 18 0 0 0 0 8 9 10 9 7 8 9 8
0 0 0 0 0 0 0 0 0 0 29 30 29 28 19 20 19 18 14 15 16 15 18 19 18 17 22 23 24 23 28 29 30 29 18 19 20 19 0 0 0 0 9 10 11 10 8 9 10 9
0 0 0 0 0 0 0 0 0 0 30 29 28 29 20 19 18 19 13 14 15 14 19 18 17 18 21 22 23 22 27 28 29 28 19 18 19 20 0 0 0 0 10 9 10 11 9 8 9 10
0 0 0 0 0 0 0 0 0 0 38 37 36 37 28 27 26 27 17 18 17 16 27 26 25 26 25 26 25 24 31 32 31 30 13 14 13 12 11 10 9 10 0 0 0 0 5 6 5 4
0 0 0 0 0 0 0 0 0 0 37 38 37 36 27 28 27 26 18 19 18 17 26 27 26 25 26 27 26 25 32 33 32 31 14 15 14 13 10 11 10 9 0 0 0 0 6 7 6 5
0 0 0 0 0 0 0 0 0 0 36 37 36 35 26 27 26 25 17 18 19 18 25 26 25 24 25 26 27 26 31 32 33 32 13 14 15 14 9 10 9 8 0 0 0 0 5 6 7 6
0 0 0 0 0 0 0 0 0 0 37 36 35 36 27 26 25 26 16 17 18 17 26 25 24 25 24 25 26 25 30 31 32 31 12 13 14 13 10 9 8 9 0 0 0 0 4 5 6 5
0 0 0 0 0 0 0 0 0 0 37 36 35 36 27 26 25 26 14 15 14 13 26 25 24 25 22 23 22 21 28 29 28 27 12 11 12 13 10 9 8 9 7 6 5 6 0 0 0 0
0 0 0 0 0 0 0 0 0 0 36 37 36 35 26 27 26 25 15 16 15 14 25 26 25 24 23 24 23 22 29 30 29 28 11 12 13 12 9 10 9 8 6 5 4 5 0 0 0 0
0 0 0 0 0 0 0 0 0 0 35 36 35 34 25 26 25 24 14 15 16 15 24 25 24 23 22 23 24 23 28 29 30 29 12 13 14 13 8 9 8 7 5 4 5 6 0 0 0 0
0 0 0 0 0 0 0 0 0 0 36 35 34 35 26 25 24 25 13 14 15 14 25 24 23 24 21 22 23 22 27 28 29 28 13 12 13 14 9 8 7 8 6 5 6 7 0 0 0 0
GTSP_SET_SECTION
1 1 -1
2 2 -1
3 3 -1
4 4 -1
5 5 -1
6 6 -1
7 7 -1
8 8 -1
9 9 -1
10 10 -1
11 11 12 13 14 -1
12 15 16 17 18 -1
13 19 20 21 22 -1
14 23 24 25 26 -1
15 27 28 29 30 -1
16 31 32 33 34 -1
17 35 36 37 38 -1
18 39 40 41 42 -1
19 43 44 45 46 -1
20 47 48 49 50 -1
