EGSTP_runtime_files/empty-32-32_p_safe_0.8_typeOfTest_2_mEgtsp.tour
NAME : mEgtspf.57.tour
COMMENT : Length = 57
COMMENT : Found by GLKH [Keld Helsgaun] Wed May  7 12:08:04 2025
TYPE : TOUR
DIMENSION : 20
TOUR_SECTION
1
10
7
8
19
16
48
9
3
2
43
28
5
25
41
38
31
4
13
6
-1
EOF
